c read Graph
c width = 996
c time = 8 ms
c width = 328
c time = 712 ms
c width = 24
c time = 891 ms
c width = 23
c time = 995 ms
c width = 22
c time = 2950 ms
c width = 21
c time = 6269 ms
c width = 20
c time = 40557 ms
c width = 19
c time = 268649 ms
c width = 19
c time = 299913 ms
s td 901 20 1005
b 1 100 717
b 2 421 717 718
b 3 146 668
b 4 95 662
b 5 256 614
b 6 143 574
b 7 117 450
b 8 194 450 451
b 9 1 616 617
b 10 2 731 732
b 11 723 731 732
b 12 3 823 824
b 13 4 942 943
b 14 101 572 1004 1005
b 15 112 669 670 719
b 16 179 575 877 878
b 17 236 453 719 720
b 18 271 575 576 615
b 19 199 332 716 1005
b 20 422 613 702 703
b 21 203 453 454 457
b 22 381 458 459 461
b 23 34 462 463 464
b 24 291 465 466 467
b 25 348 469 470 471
b 26 423 472 473 475
b 27 257 476 477 478
b 28 442 478 479 481
b 29 139 482 483 487
b 30 33 492 493 496
b 31 193 497 498 500
b 32 195 500 501 502
b 33 156 504 505 506
b 34 67 506 507 510
b 35 97 515 516 520
b 36 250 522 523 525
b 37 60 529 530 533
b 38 183 535 536 537
b 39 401 542 543 546
b 40 82 550 551 552
b 41 41 553 554 555
b 42 153 556 557 560
b 43 168 560 561 562
b 44 119 562 563 568
b 45 390 569 570 571
b 46 17 576 577 579
b 47 376 579 580 584
b 48 321 584 585 592
b 49 150 593 594 595
b 50 34 595 596 599
b 51 99 599 600 605
b 52 390 605 606 610
b 53 216 610 611 612
b 54 196 615 616 622
b 55 302 622 623 624
b 56 58 625 626 629
b 57 317 631 632 633
b 58 383 635 636 637
b 59 217 637 638 639
b 60 331 639 640 641
b 61 435 641 642 645
b 62 150 646 647 649
b 63 364 649 650 651
b 64 200 651 652 654
b 65 135 654 655 656
b 66 197 199 656 657
b 67 26 664 665 669
b 68 285 670 671 672
b 69 125 673 674 676
b 70 442 676 677 678
b 71 264 678 679 680
b 72 383 680 681 682
b 73 435 682 683 684
b 74 197 687 688 689
b 75 340 689 690 691
b 76 196 691 692 694
b 77 400 704 705 706
b 78 141 707 708 709
b 79 331 709 710 711
b 80 307 712 713 715
b 81 453 719 720 721
b 82 285 722 723 737
b 83 291 738 739 743
b 84 125 744 745 747
b 85 348 747 748 749
b 86 257 749 750 754
b 87 403 756 757 758
b 88 264 758 759 760
b 89 410 761 762 763
b 90 435 763 764 768
b 91 342 768 769 776
b 92 156 776 777 778
b 93 57 778 779 782
b 94 67 783 784 793
b 95 340 795 796 799
b 96 182 799 800 802
b 97 328 802 803 807
b 98 186 807 808 811
b 99 302 812 813 814
b 100 269 814 815 818
b 101 365 818 819 820
b 102 241 820 821 822
b 103 58 822 823 824
b 104 354 826 827 828
b 105 401 828 829 833
b 106 279 833 834 839
b 107 141 840 841 842
b 108 368 844 845 848
b 109 41 849 850 851
b 110 314 851 852 853
b 111 212 853 854 856
b 112 119 856 857 864
b 113 165 865 866 870
b 114 135 870 871 875
b 115 406 875 876 877
b 116 575 877 878 888
b 117 381 889 890 891
b 118 288 891 892 898
b 119 96 898 899 903
b 120 102 903 904 905
b 121 423 905 906 910
b 122 139 910 911 913
b 123 62 913 914 917
b 124 373 918 919 920
b 125 33 921 922 923
b 126 193 923 924 926
b 127 195 926 927 928
b 128 103 929 930 932
b 129 364 932 933 935
b 130 407 935 936 941
b 131 445 941 942 947
b 132 97 947 948 956
b 133 250 956 957 960
b 134 31 963 964 967
b 135 213 967 968 971
b 136 284 971 972 976
b 137 259 979 980 985
b 138 82 986 987 989
b 139 153 989 990 997
b 140 88 997 998 1004
b 141 203 453 457 721 722
b 142 453 457 719 721 722
b 143 285 457 719 722 737
b 144 285 457 669 672 719 737
b 145 285 669 670 672 719
b 146 457 665 669 672 673 737
b 147 26 665 669 672 673
b 148 457 462 665 673 737 888 898
b 149 462 464 471 665 673 676 737 749 888 898 903
b 150 317 462 464 471 478 665 676 749 754 888 903 910
b 151 317 471 476 478 749 754 903 910
b 152 317 471 475 476 903 910
b 153 471 472 475 903 905 910
b 154 102 471 472 903 905
b 155 423 472 475 905 910
b 156 257 476 478 749 754
b 157 317 462 464 478 595 599 665 676 754 888 910
b 158 317 464 478 497 595 599 634 645 665 676 684 709 711 754 776 888 910 923
b 159 478 497 634 645 676 684 709 711 754 776 910 920 923
b 160 435 478 490 497 634 637 645 676 684 709 711 754 760 776 910 920 923
b 161 383 435 478 481 490 634 637 676 684 754 758 760 910 920
b 162 383 435 478 481 676 680 684 758 760
b 163 383 435 680 682 684
b 164 478 481 676 678 680 758 760
b 165 442 478 481 676 678
b 166 264 678 680 758 760
b 167 383 481 490 634 637 754 755 758 910 920
b 168 383 634 635 637 754 755
b 169 6 634 635 754 755
b 170 383 481 488 490 755 758 910 913 920
b 171 383 488 489 490 913 918 920
b 172 383 488 489 913 917 918
b 173 62 488 489 913 917
b 174 373 489 490 918 920
b 175 481 482 488 755 756 758 910 913
b 176 167 481 482 755 756
b 177 482 487 488 756 758 910 913
b 178 139 482 487 910 913
b 179 403 487 488 756 758
b 180 435 490 497 637 645 709 711 760 761 776 920 923
b 181 435 490 491 497 761 768 776 920 923
b 182 435 490 491 761 763 768
b 183 410 490 491 761 763
b 184 491 496 497 768 776 920 923
b 185 342 496 497 768 776
b 186 491 492 496 920 921 923
b 187 35 491 492 920 921
b 188 33 492 496 921 923
b 189 435 637 639 645 709 711 760 761
b 190 331 435 639 645 709 711
b 191 331 435 639 641 645
b 192 217 637 639 760 761
b 193 317 464 497 504 593 595 599 634 645 651 665 684 709 711 776 853 856 888 923 941
b 194 317 464 504 593 595 599 634 651 665 684 709 711 776 853 856 888 941
b 195 317 504 593 595 599 634 651 665 684 709 711 776 853 856 888 941
b 196 497 504 593 595 645 646 651 853 856 923 941
b 197 150 497 504 593 595 646 651 923 941
b 198 150 497 503 504 646 651 923 935 941
b 199 407 503 504 935 941
b 200 150 497 503 646 651 923 932 935
b 201 150 646 649 651 932 935
b 202 364 649 651 932 935
b 203 150 497 502 503 923 929 932
b 204 150 497 502 923 928 929
b 205 497 500 502 923 926 928
b 206 195 500 502 926 928
b 207 193 497 500 923 926
b 208 103 502 503 929 932
b 209 212 645 646 853 856
b 210 317 504 506 593 599 634 651 665 684 709 711 776 778 853 856 888 941
b 211 156 504 506 776 778
b 212 317 506 560 562 592 593 599 634 651 665 684 709 711 776 778 853 856 888 941
b 213 317 506 560 562 592 599 634 651 665 684 709 711 776 778 853 856 888 941
b 214 317 506 560 562 592 599 634 651 665 684 686 709 711 778 783 853 856 888 941
b 215 684 686 778 783 853 856 888 941
b 216 684 685 686 778 782 783
b 217 57 684 685 778 782
b 218 47 685 686 782 783
b 219 317 506 510 560 562 592 599 634 651 665 686 709 711 783 793 853 856 888 941
b 220 317 510 560 562 592 599 634 651 665 686 709 711 783 793 853 856 888 941
b 221 317 510 560 562 592 599 634 651 665 686 709 711 793 853 856 865 888 941
b 222 307 317 510 560 562 568 592 599 634 651 665 686 709 711 793 853 856 865 888 941
b 223 307 562 568 856 864 865
b 224 119 562 568 856 864
b 225 307 317 510 560 568 592 599 634 651 665 686 709 711 793 853 856 865 888 941
b 226 307 317 510 560 568 571 592 599 610 634 651 665 686 709 711 793 853 865 888 941
b 227 307 317 510 560 571 592 610 634 651 654 665 686 687 709 711 793 853 865 888 941
b 228 165 307 317 510 560 571 592 610 634 654 665 687 709 711 793 853 865 870 888 941
b 229 165 307 317 510 560 571 572 592 610 634 654 665 687 709 711 793 853 870 888 941
b 230 307 317 510 560 572 592 610 634 654 656 665 687 709 711 793 853 870 875 888 941
b 231 199 307 317 510 560 572 592 610 634 656 665 687 689 709 711 793 853 875 888 941
b 232 197 199 656 687 689
b 233 199 307 317 510 560 572 592 610 634 665 689 709 711 793 853 875 877 888 941 997
b 234 199 307 572 711 715 875 877 997 1004
b 235 307 711 712 715 997 1004
b 236 88 711 712 997 1004
b 237 199 572 715 716 875 877 1004
b 238 199 572 716 1004 1005
b 239 406 715 716 875 877
b 240 199 307 317 510 560 576 592 610 615 634 665 689 709 793 853 877 888 941 997
b 241 575 576 615 877 888
b 242 199 307 317 510 512 560 576 584 592 610 615 634 665 689 709 793 795 853 941 997
b 243 510 512 576 584 592 610 615 634 665 689 709 793 795 853 941 997
b 244 510 511 512 576 579 584 793 795
b 245 510 511 576 579 793 794 795
b 246 248 510 511 794 795
b 247 17 576 579 793 794
b 248 376 511 512 579 584
b 249 199 307 317 512 560 584 592 610 615 622 634 665 689 694 709 795 799 853 941 997
b 250 615 622 689 691 694 795 799
b 251 340 689 691 795 799
b 252 196 615 622 691 694
b 253 135 654 656 870 875
b 254 200 651 654 686 687
b 255 568 569 571 599 605 610
b 256 99 568 569 599 605
b 257 390 569 571 605 610
b 258 67 506 510 783 793
b 259 168 560 562 592 593
b 260 34 462 464 595 599
b 261 464 469 471 673 676 737 744 749 898 903
b 262 464 468 469 737 743 744 898 903
b 263 464 467 468 737 743 898 903
b 264 464 465 467 737 738 743
b 265 137 464 465 737 738
b 266 291 465 467 738 743
b 267 96 467 468 898 903
b 268 12 468 469 743 744
b 269 469 471 673 676 744 747 749
b 270 348 469 471 747 749
b 271 125 673 676 744 747
b 272 457 461 462 888 891 898
b 273 288 461 462 891 898
b 274 457 458 461 888 889 891
b 275 381 458 461 889 891
b 276 14 457 458 888 889
b 277 199 307 317 512 560 584 592 610 622 634 665 694 709 795 799 853 941 997
b 278 321 514 515 584 592
b 279 515 520 525 802 811 947 956 960
b 280 512 514 515 584 592 799 802 941 947
b 281 199 307 317 512 525 560 584 592 610 622 634 665 694 709 799 811 853 941 960 997
b 282 512 515 525 584 592 799 802 811 941 947 960
b 283 512 525 584 592 799 811 941 960 997
b 284 199 307 317 525 540 560 610 622 633 634 665 694 703 709 811 826 853 960 979 997
b 285 199 307 540 560 633 634 665 703 709 826 833 842 853 979 997
b 286 199 307 633 634 665 703 706 709 833 842
b 287 633 634 706 709 833 839 842
b 288 706 707 709 839 840 842
b 289 141 707 709 840 842
b 290 32 706 707 839 840
b 291 279 633 634 833 839
b 292 199 307 665 667 703 706
b 293 665 666 667 703 704 706
b 294 400 666 667 704 706
b 295 371 665 666 703 704
b 296 540 546 560 826 833 842 853 979 985 997
b 297 546 556 560 842 853 985 989 997
b 298 546 549 556 842 848 853 985 989
b 299 549 552 556 848 853 985 989
b 300 549 550 552 985 986 989
b 301 240 549 550 985 986
b 302 82 550 552 986 989
b 303 552 555 556 848 851 853
b 304 552 553 555 848 849 851
b 305 41 553 555 849 851
b 306 389 552 553 848 849
b 307 314 555 556 851 853
b 308 546 548 549 842 843 848
b 309 223 548 549 842 843
b 310 546 547 548 843 844 848
b 311 368 546 547 844 848
b 312 48 547 548 843 844
b 313 153 556 560 989 997
b 314 540 542 546 826 828 833 979 985
b 315 540 541 542 826 828 979 985
b 316 354 540 541 826 828
b 317 259 541 542 979 985
b 318 401 542 546 828 833
b 319 216 317 525 540 610 622 630 633 694 699 703 811 825 826 960 978 979
b 320 216 317 610 630 633 699 701 703 825 826 978 979
b 321 216 317 610 701 702 703 978 979
b 322 216 317 610 613 702 703
b 323 216 317 610 612 613
b 324 145 701 702 978 979
b 325 317 630 633 699 700 701 825 826
b 326 434 699 700 825 826
b 327 317 630 631 633 700 701
b 328 282 630 631 700 701
b 329 216 525 533 540 622 625 630 694 699 811 820 825 960 971 978
b 330 525 533 622 625 694 695 699 811 812 820 960 963 971
b 331 525 526 533 694 695 811 812 960 963
b 332 300 525 526 694 695
b 333 526 529 533 811 812 960 962 963
b 334 526 528 529 811 812 960 962
b 335 526 527 528 960 961 962
b 336 222 526 527 960 961
b 337 379 527 528 961 962
b 338 325 528 529 811 812
b 339 60 529 533 962 963
b 340 31 622 625 695 699 812 814 820 963 971
b 341 31 695 698 699 814 820 963 971
b 342 31 695 697 698 814 818 820
b 343 31 695 696 697 814 818
b 344 269 695 696 814 818
b 345 365 697 698 818 820
b 346 31 698 699 963 967 971
b 347 213 698 699 967 971
b 348 31 622 624 625 812 814
b 349 302 622 624 812 814
b 350 216 533 534 540 625 630 820 824 825 971 978
b 351 216 533 534 625 630 820 822 824
b 352 241 533 534 820 822
b 353 216 625 629 630 822 824
b 354 58 625 629 822 824
b 355 216 534 537 540 824 825 971 976 978
b 356 216 537 539 540 976 978
b 357 537 538 539 976 977 978
b 358 436 537 538 976 977
b 359 419 538 539 977 978
b 360 534 535 537 824 825 971 976
b 361 183 535 537 824 825
b 362 284 534 535 971 976
b 363 520 522 525 802 811 956 960
b 364 520 521 522 802 807 811
b 365 328 520 521 802 807
b 366 186 521 522 807 811
b 367 250 522 525 956 960
b 368 97 515 520 947 956
b 369 512 513 514 799 802 941 947
b 370 445 512 513 941 947
b 371 182 513 514 799 802
b 372 38 1003 1004
b 373 998 1003 1004
b 374 127 1002 1003
b 375 998 1002 1003
b 376 220 1001 1002
b 377 998 1001 1002
b 378 56 1000 1001
b 379 998 1000 1001
b 380 311 999 1000
b 381 998 999 1000
b 382 107 998 999
b 383 318 996 997
b 384 990 996 997
b 385 387 995 996
b 386 990 995 996
b 387 218 994 995
b 388 990 994 995
b 389 429 993 994
b 390 990 993 994
b 391 16 992 993
b 392 990 992 993
b 393 149 991 992
b 394 990 991 992
b 395 159 990 991
b 396 123 988 989
b 397 987 988 989
b 398 427 987 988
b 399 428 984 985
b 400 980 984 985
b 401 106 983 984
b 402 980 983 984
b 403 413 982 983
b 404 980 982 983
b 405 363 981 982
b 406 980 981 982
b 407 334 980 981
b 408 77 975 976
b 409 972 975 976
b 410 234 974 975
b 411 972 974 975
b 412 333 973 974
b 413 972 973 974
b 414 397 972 973
b 415 367 970 971
b 416 968 970 971
b 417 20 969 970
b 418 968 969 970
b 419 249 968 969
b 420 242 966 967
b 421 964 966 967
b 422 18 965 966
b 423 964 965 966
b 424 46 964 965
b 425 277 959 960
b 426 957 959 960
b 427 152 958 959
b 428 957 958 959
b 429 39 957 958
b 430 230 955 956
b 431 948 955 956
b 432 305 954 955
b 433 948 954 955
b 434 45 953 954
b 435 948 953 954
b 436 133 952 953
b 437 948 952 953
b 438 350 951 952
b 439 948 951 952
b 440 280 950 951
b 441 948 950 951
b 442 126 949 950
b 443 948 949 950
b 444 190 948 949
b 445 219 946 947
b 446 942 946 947
b 447 80 945 946
b 448 942 945 946
b 449 120 944 945
b 450 942 944 945
b 451 439 943 944
b 452 942 943 944
b 453 27 940 941
b 454 936 940 941
b 455 315 939 940
b 456 936 939 940
b 457 444 938 939
b 458 936 938 939
b 459 369 937 938
b 460 936 937 938
b 461 245 936 937
b 462 418 934 935
b 463 933 934 935
b 464 323 933 934
b 465 398 931 932
b 466 930 931 932
b 467 391 930 931
b 468 40 927 928
b 469 384 925 926
b 470 924 925 926
b 471 111 924 925
b 472 356 922 923
b 473 75 919 920
b 474 292 916 917
b 475 914 916 917
b 476 382 915 916
b 477 914 915 916
b 478 134 914 915
b 479 322 912 913
b 480 911 912 913
b 481 204 911 912
b 482 108 909 910
b 483 906 909 910
b 484 68 908 909
b 485 906 908 909
b 486 161 907 908
b 487 906 907 908
b 488 228 906 907
b 489 295 904 905
b 490 71 902 903
b 491 899 902 903
b 492 296 901 902
b 493 899 901 902
b 494 252 900 901
b 495 899 900 901
b 496 415 899 900
b 497 121 897 898
b 498 892 897 898
b 499 275 896 897
b 500 892 896 897
b 501 83 895 896
b 502 892 895 896
b 503 385 894 895
b 504 892 894 895
b 505 138 893 894
b 506 892 893 894
b 507 301 892 893
b 508 15 890 891
b 509 246 887 888
b 510 878 887 888
b 511 433 886 887
b 512 878 886 887
b 513 51 885 886
b 514 878 885 886
b 515 69 884 885
b 516 878 884 885
b 517 408 883 884
b 518 878 883 884
b 519 181 882 883
b 520 878 882 883
b 521 449 881 882
b 522 878 881 882
b 523 286 880 881
b 524 878 880 881
b 525 316 879 880
b 526 878 879 880
b 527 189 878 879
b 528 396 876 877
b 529 335 874 875
b 530 871 874 875
b 531 229 873 874
b 532 871 873 874
b 533 21 872 873
b 534 871 872 873
b 535 66 871 872
b 536 65 869 870
b 537 866 869 870
b 538 341 868 869
b 539 866 868 869
b 540 174 867 868
b 541 866 867 868
b 542 109 866 867
b 543 151 863 864
b 544 857 863 864
b 545 293 862 863
b 546 857 862 863
b 547 55 861 862
b 548 857 861 862
b 549 351 860 861
b 550 857 860 861
b 551 43 859 860
b 552 857 859 860
b 553 163 858 859
b 554 857 858 859
b 555 366 857 858
b 556 157 855 856
b 557 854 855 856
b 558 13 854 855
b 559 180 852 853
b 560 84 850 851
b 561 89 847 848
b 562 845 847 848
b 563 59 846 847
b 564 845 846 847
b 565 404 845 846
b 566 361 841 842
b 567 239 838 839
b 568 834 838 839
b 569 244 837 838
b 570 834 837 838
b 571 388 836 837
b 572 834 836 837
b 573 343 835 836
b 574 834 835 836
b 575 9 834 835
b 576 63 832 833
b 577 829 832 833
b 578 443 831 832
b 579 829 831 832
b 580 394 830 831
b 581 829 830 831
b 582 129 829 830
b 583 432 827 828
b 584 344 821 822
b 585 251 819 820
b 586 233 817 818
b 587 815 817 818
b 588 85 816 817
b 589 815 816 817
b 590 214 815 816
b 591 176 813 814
b 592 339 810 811
b 593 808 810 811
b 594 148 809 810
b 595 808 809 810
b 596 73 808 809
b 597 177 806 807
b 598 803 806 807
b 599 93 805 806
b 600 803 805 806
b 601 114 804 805
b 602 803 804 805
b 603 326 803 804
b 604 76 801 802
b 605 800 801 802
b 606 104 800 801
b 607 142 798 799
b 608 796 798 799
b 609 166 797 798
b 610 796 797 798
b 611 438 796 797
b 612 215 792 793
b 613 784 792 793
b 614 208 791 792
b 615 784 791 792
b 616 278 790 791
b 617 784 790 791
b 618 380 789 790
b 619 784 789 790
b 620 352 788 789
b 621 784 788 789
b 622 5 787 788
b 623 784 787 788
b 624 201 786 787
b 625 784 786 787
b 626 298 785 786
b 627 784 785 786
b 628 24 784 785
b 629 440 781 782
b 630 779 781 782
b 631 266 780 781
b 632 779 780 781
b 633 210 779 780
b 634 122 777 778
b 635 132 775 776
b 636 769 775 776
b 637 349 774 775
b 638 769 774 775
b 639 160 773 774
b 640 769 773 774
b 641 91 772 773
b 642 769 772 773
b 643 175 771 772
b 644 769 771 772
b 645 306 770 771
b 646 769 770 771
b 647 226 769 770
b 648 187 767 768
b 649 764 767 768
b 650 22 766 767
b 651 764 766 767
b 652 202 765 766
b 653 764 765 766
b 654 329 764 765
b 655 155 762 763
b 656 426 759 760
b 657 115 757 758
b 658 417 753 754
b 659 750 753 754
b 660 37 752 753
b 661 750 752 753
b 662 42 751 752
b 663 750 751 752
b 664 425 750 751
b 665 61 748 749
b 666 154 746 747
b 667 745 746 747
b 668 8 745 746
b 669 290 742 743
b 670 739 742 743
b 671 235 741 742
b 672 739 741 742
b 673 360 740 741
b 674 739 740 741
b 675 92 739 740
b 676 441 736 737
b 677 723 736 737
b 678 36 735 736
b 679 723 735 736
b 680 294 734 735
b 681 723 734 735
b 682 393 733 734
b 683 723 733 734
b 684 274 732 733
b 685 723 732 733
b 686 281 730 731
b 687 723 730 731
b 688 86 729 730
b 689 723 729 730
b 690 94 728 729
b 691 723 728 729
b 692 319 727 728
b 693 723 727 728
b 694 309 726 727
b 695 723 726 727
b 696 420 725 726
b 697 723 725 726
b 698 64 724 725
b 699 723 724 725
b 700 430 723 724
b 701 98 720 721
b 702 29 714 715
b 703 713 714 715
b 704 238 713 714
b 705 447 710 711
b 706 289 708 709
b 707 330 705 706
b 708 263 693 694
b 709 692 693 694
b 710 395 692 693
b 711 262 690 691
b 712 312 688 689
b 713 227 683 684
b 714 25 681 682
b 715 308 679 680
b 716 276 677 678
b 717 185 675 676
b 718 674 675 676
b 719 267 674 675
b 720 378 671 672
b 721 265 664 669
b 722 118 655 656
b 723 164 653 654
b 724 652 653 654
b 725 10 652 653
b 726 402 650 651
b 727 90 648 649
b 728 647 648 649
b 729 359 647 648
b 730 273 644 645
b 731 642 644 645
b 732 198 643 644
b 733 642 643 644
b 734 209 642 643
b 735 116 640 641
b 736 72 638 639
b 737 353 636 637
b 738 260 632 633
b 739 247 628 629
b 740 626 628 629
b 741 270 627 628
b 742 626 627 628
b 743 357 626 627
b 744 162 623 624
b 745 355 621 622
b 746 616 621 622
b 747 110 620 621
b 748 616 620 621
b 749 261 619 620
b 750 616 619 620
b 751 255 618 619
b 752 616 618 619
b 753 431 617 618
b 754 616 617 618
b 755 409 611 612
b 756 28 609 610
b 757 606 609 610
b 758 113 608 609
b 759 606 608 609
b 760 372 607 608
b 761 606 607 608
b 762 345 606 607
b 763 78 604 605
b 764 600 604 605
b 765 191 603 604
b 766 600 603 604
b 767 392 602 603
b 768 600 602 603
b 769 374 601 602
b 770 600 601 602
b 771 30 600 601
b 772 424 598 599
b 773 596 598 599
b 774 338 597 598
b 775 596 597 598
b 776 54 596 597
b 777 287 594 595
b 778 11 591 592
b 779 585 591 592
b 780 87 590 591
b 781 585 590 591
b 782 237 589 590
b 783 585 589 590
b 784 52 588 589
b 785 585 588 589
b 786 268 587 588
b 787 585 587 588
b 788 253 586 587
b 789 585 586 587
b 790 386 585 586
b 791 7 583 584
b 792 580 583 584
b 793 416 582 583
b 794 580 582 583
b 795 414 581 582
b 796 580 581 582
b 797 169 580 581
b 798 70 578 579
b 799 577 578 579
b 800 375 577 578
b 801 178 570 571
b 802 136 567 568
b 803 563 567 568
b 804 170 566 567
b 805 563 566 567
b 806 173 565 566
b 807 563 565 566
b 808 243 564 565
b 809 563 564 565
b 810 147 563 564
b 811 221 561 562
b 812 411 559 560
b 813 557 559 560
b 814 299 558 559
b 815 557 558 559
b 816 283 557 558
b 817 207 554 555
b 818 19 551 552
b 819 140 545 546
b 820 543 545 546
b 821 370 544 545
b 822 543 544 545
b 823 254 543 544
b 824 304 536 537
b 825 327 532 533
b 826 530 532 533
b 827 49 531 532
b 828 530 531 532
b 829 79 530 531
b 830 188 524 525
b 831 523 524 525
b 832 105 523 524
b 833 192 519 520
b 834 516 519 520
b 835 297 518 519
b 836 516 518 519
b 837 74 517 518
b 838 516 517 518
b 839 258 516 517
b 840 50 509 510
b 841 507 509 510
b 842 225 508 509
b 843 507 508 509
b 844 336 507 508
b 845 158 505 506
b 846 412 501 502
b 847 184 499 500
b 848 498 499 500
b 849 313 498 499
b 850 130 495 496
b 851 493 495 496
b 852 128 494 495
b 853 493 494 495
b 854 206 493 494
b 855 303 486 487
b 856 483 486 487
b 857 272 485 486
b 858 483 485 486
b 859 320 484 485
b 860 483 484 485
b 861 399 483 484
b 862 448 480 481
b 863 479 480 481
b 864 324 479 480
b 865 232 477 478
b 866 171 474 475
b 867 473 474 475
b 868 131 473 474
b 869 124 470 471
b 870 337 466 467
b 871 144 463 464
b 872 231 460 461
b 873 459 460 461
b 874 346 459 460
b 875 347 456 457
b 876 454 456 457
b 877 224 455 456
b 878 454 455 456
b 879 310 454 455
b 880 44 422 613
b 881 332 358 1005
b 882 271 614 615
b 883 265 668 669
b 884 23 663 664
b 885 265 663 664
b 886 265 662 663
b 887 205 452 453
b 888 236 452 453
b 889 236 451 452
b 890 172 199 658
b 891 199 657 658
b 892 446 657 658
b 893 179 574 575
b 894 112 718 719
b 895 101 211 573
b 896 101 572 573
b 897 437 572 573
b 898 405 659
b 899 81 659 660
b 900 362 377 661
b 901 53 660 661
1 2
1 898
2 894
3 883
4 886
5 882
6 893
7 8
8 889
9 754
10 11
11 687
11 685
12 103
13 452
14 896
14 238
15 894
15 145
16 893
16 116
17 888
17 81
18 882
18 241
19 881
19 238
20 880
20 322
21 876
21 141
22 873
22 275
23 871
23 260
24 870
24 266
25 869
25 270
26 867
26 155
27 865
27 156
28 863
28 165
29 856
29 178
30 851
30 188
31 848
31 207
32 846
32 206
33 845
33 211
34 841
34 258
35 834
35 368
36 831
36 367
37 826
37 339
38 824
38 361
39 820
39 318
40 818
40 302
41 817
41 305
42 813
42 313
43 811
43 259
44 803
44 224
45 801
45 257
46 799
46 247
47 792
47 248
48 779
48 278
49 777
49 197
50 773
50 260
51 764
51 256
52 757
52 257
53 755
53 323
54 746
54 252
55 744
55 349
56 740
56 354
57 738
57 327
58 737
58 168
59 736
59 192
60 735
60 191
61 731
61 191
62 728
62 201
63 726
63 202
64 724
64 254
65 722
65 253
66 891
66 232
67 721
67 147
68 720
68 145
69 718
69 271
70 716
70 165
71 715
71 166
72 714
72 163
73 713
73 163
74 712
74 232
75 711
75 251
76 709
76 252
77 707
77 294
78 706
78 289
79 705
79 190
80 703
80 235
81 701
81 142
82 677
82 143
83 670
83 266
84 667
84 271
85 665
85 270
86 659
86 156
87 657
87 179
88 656
88 166
89 655
89 183
90 649
90 182
91 636
91 185
92 634
92 211
93 630
93 217
94 613
94 258
95 608
95 251
96 605
96 371
97 598
97 365
98 593
98 366
99 591
99 349
100 587
100 344
101 585
101 345
102 584
102 352
103 354
104 583
104 316
105 577
105 318
106 568
106 291
107 566
107 289
108 562
108 311
109 560
109 305
110 559
110 307
111 557
111 209
112 544
112 224
113 537
113 228
114 530
114 253
115 528
115 239
116 510
116 241
117 508
117 275
118 498
118 273
119 491
119 267
120 489
120 154
121 483
121 155
122 480
122 178
123 475
123 173
124 473
124 174
125 472
125 188
126 470
126 207
127 468
127 206
128 466
128 208
129 463
129 202
130 454
130 199
131 446
131 370
132 431
132 368
133 426
133 367
134 421
134 346
135 416
135 347
136 409
136 362
137 400
137 317
138 397
138 302
139 384
139 313
140 373
140 236
141 142
142 143
143 144
144 146
144 145
146 148
146 147
148 272
148 149
149 261
149 150
150 157
150 151
151 156
151 152
152 153
153 154
153 155
157 260
157 158
158 193
158 159
159 160
160 180
160 161
161 167
161 162
162 163
162 164
164 166
164 165
167 168
167 170
168 169
170 171
170 175
171 174
171 172
172 173
175 176
175 177
177 178
177 179
180 189
180 181
181 182
181 184
182 183
184 185
184 186
186 187
186 188
189 190
189 192
190 191
193 210
193 196
193 195
193 194
196 197
196 209
197 198
198 199
198 200
200 201
200 203
201 202
203 208
203 204
204 205
205 207
205 206
210 212
210 211
212 259
212 214
212 213
214 219
214 216
214 215
216 218
216 217
219 258
219 221
219 220
221 222
222 225
222 223
223 224
225 226
226 255
226 227
227 228
227 254
228 229
229 230
230 253
230 231
231 232
231 233
233 240
233 234
234 237
234 235
235 236
237 238
237 239
240 242
240 241
242 249
242 244
242 243
244 245
244 248
245 247
245 246
249 277
249 250
250 251
250 252
255 257
255 256
261 269
261 262
262 268
262 263
263 264
263 267
264 265
264 266
269 271
269 270
272 273
272 274
274 276
274 275
277 281
278 280
279 368
279 363
279 282
280 369
280 282
281 284
281 283
282 283
284 285
284 319
285 296
285 286
286 292
286 287
287 288
287 291
288 290
288 289
292 293
293 295
293 294
296 314
296 297
297 298
297 313
298 299
298 308
299 303
299 300
300 301
300 302
303 304
303 307
304 305
304 306
308 309
308 310
310 311
310 312
314 318
314 315
315 316
315 317
319 320
319 329
320 325
320 321
321 324
321 322
322 323
325 327
325 326
327 328
329 350
329 330
330 340
330 331
331 332
331 333
333 334
333 339
334 335
334 338
335 336
335 337
340 341
340 348
341 342
341 346
342 345
342 343
343 344
346 347
348 349
350 355
350 351
351 353
351 352
353 354
355 360
355 356
356 357
357 358
357 359
360 361
360 362
363 364
363 367
364 366
364 365
369 371
369 370
372 373
373 375
374 375
375 377
376 377
377 379
378 379
379 381
380 381
381 382
383 384
384 386
385 386
386 388
387 388
388 390
389 390
390 392
391 392
392 394
393 394
394 395
396 397
397 398
399 400
400 402
401 402
402 404
403 404
404 406
405 406
406 407
408 409
409 411
410 411
411 413
412 413
413 414
415 416
416 418
417 418
418 419
420 421
421 423
422 423
423 424
425 426
426 428
427 428
428 429
430 431
431 433
432 433
433 435
434 435
435 437
436 437
437 439
438 439
439 441
440 441
441 443
442 443
443 444
445 446
446 448
447 448
448 450
449 450
450 452
451 452
453 454
454 456
455 456
456 458
457 458
458 460
459 460
460 461
462 463
463 464
465 466
466 467
469 470
470 471
474 475
475 477
476 477
477 478
479 480
480 481
482 483
483 485
484 485
485 487
486 487
487 488
490 491
491 493
492 493
493 495
494 495
495 496
497 498
498 500
499 500
500 502
501 502
502 504
503 504
504 506
505 506
506 507
509 510
510 512
511 512
512 514
513 514
514 516
515 516
516 518
517 518
518 520
519 520
520 522
521 522
522 524
523 524
524 526
525 526
526 527
529 530
530 532
531 532
532 534
533 534
534 535
536 537
537 539
538 539
539 541
540 541
541 542
543 544
544 546
545 546
546 548
547 548
548 550
549 550
550 552
551 552
552 554
553 554
554 555
556 557
557 558
561 562
562 564
563 564
564 565
567 568
568 570
569 570
570 572
571 572
572 574
573 574
574 575
576 577
577 579
578 579
579 581
580 581
581 582
586 587
587 589
588 589
589 590
592 593
593 595
594 595
595 596
597 598
598 600
599 600
600 602
601 602
602 603
604 605
605 606
607 608
608 610
609 610
610 611
612 613
613 615
614 615
615 617
616 617
617 619
618 619
619 621
620 621
621 623
622 623
623 625
624 625
625 627
626 627
627 628
629 630
630 632
631 632
632 633
635 636
636 638
637 638
638 640
639 640
640 642
641 642
642 644
643 644
644 646
645 646
646 647
648 649
649 651
650 651
651 653
652 653
653 654
658 659
659 661
660 661
661 663
662 663
663 664
666 667
667 668
669 670
670 672
671 672
672 674
673 674
674 675
676 677
677 679
678 679
679 681
680 681
681 683
682 683
683 685
684 685
686 687
687 689
688 689
689 691
690 691
691 693
692 693
693 695
694 695
695 697
696 697
697 699
698 699
699 700
702 703
703 704
708 709
709 710
717 718
718 719
721 885
721 883
723 724
724 725
727 728
728 729
730 731
731 733
732 733
733 734
739 740
740 742
741 742
742 743
745 746
746 748
747 748
748 750
749 750
750 752
751 752
752 754
753 754
756 757
757 759
758 759
759 761
760 761
761 762
763 764
764 766
765 766
766 768
767 768
768 770
769 770
770 771
772 773
773 775
774 775
775 776
778 779
779 781
780 781
781 783
782 783
783 785
784 785
785 787
786 787
787 789
788 789
789 790
791 792
792 794
793 794
794 796
795 796
796 797
798 799
799 800
802 803
803 805
804 805
805 807
806 807
807 809
808 809
809 810
812 813
813 815
814 815
815 816
819 820
820 822
821 822
822 823
825 826
826 828
827 828
828 829
830 831
831 832
833 834
834 836
835 836
836 838
837 838
838 839
840 841
841 843
842 843
843 844
847 848
848 849
850 851
851 853
852 853
853 854
855 856
856 858
857 858
858 860
859 860
860 861
862 863
863 864
866 867
867 868
872 873
873 874
875 876
876 878
877 878
878 879
884 885
885 886
887 888
888 889
890 891
891 892
895 896
896 897
898 899
899 901
900 901
